137
127
365
93
492
98
225
85
121
84
527
198
599
197
766
151
1040
223
547
702
198
134
370
90
0
423
465
214
419
209
463
192
325
184
234
96
165
316
287
616
124
78
363
169
168
121
467
309
285
146
959
246
333
194
119
274
182
242
160
77
189
73
197
111
304
163
238
86
63
121
309
157
203
47
331
107
802
70
108
222
151
178
200
127
225
249
199
62
282
103
246
58
315
118
369
109
137
178
185
286
